12,1	0,0	12,5	7,8	0,0	0,0	0,0	0,0	0,0	16,5
13,2	10,3	0,0	8,8	19,6	0,0	0,0	16,7	0,0	0,0
0,0	0,0	19,3	0,0	10,8	14,1	0,0	0,0	19,4	0,0
7,7	0,0	8,3	0,0	0,0	0,0	8,0	0,0	0,0	0,0
0,0	18,9	0,0	14,3	6,7	0,0	0,0	17,2	0,0	0,0
0,0	9,8	14,2	0,0	18,2	7,7	0,0	0,0	5,8	0,0
0,0	17,9	0,0	12,1	0,0	0,0	19,1	0,0	0,0	18,8
15,2	0,0	18,2	0,0	0,0	0,0	0,0	0,0	0,0	10,4
0,0	19,5	0,0	9,7	13,7	0,0	0,0	15,4	0,0	0,0
0,0	0,0	9,2	0,0	0,0	12,3	20,0	0,0	0,0	15,0
									
4,2	3,7	4,1	5,0	2,8	2,8	4,5	3,6	2,9	3,3
